c Sudoku solution
p cnf 729 0
132 0
181 0
214 0
238 0
251 0
296 0
327 0
384 0
449 0
474 0
497 0
517 0
524 0
536 0
639 0
688 0
715 0
743 0
762 0
818 0
428 0
834 0
916 0
126 0
944 0
794 0
969 0
975 0
987 0
737 0
958 0
756 0
789 0
778 0
721 0
933 0
922 0
829 0
991 0
279 0
177 0
599 0
148 0
398 0
568 0
664 0
154 0
359 0
119 0
163 0
195 0
693 0
553 0
413 0
612 0
431 0
625 0
657 0
311 0
335 0
223 0
282 0
373 0
342 0
366 0
452 0
646 0
541 0
465 0
486 0
585 0
572 0
671 0
861 0
855 0
847 0
245 0
267 0
876 0
883 0
892 0
